NAME          ClpDefau  FREE
ROWS
 N  OBJROW
 L  ZMUNI1_PCT
 L  ZMUNI2_PCT
 L  ZMUNI3_PCT
 L  ZMUNI4_PCT
 L  ZMUNI5_PCT
 L  ZMUNI6_PCT
 L  ZMUNI7_PCT
 L  ZMUNI8_PCT
 L  ZMUNI9_PCT
COLUMNS
    QMUNI1 OBJROW 1.          
    QMUNI1 ZMUNI1_PCT 29054.8325  
    QMUNI1 ZMUNI2_PCT 1740.2649   
    QMUNI1 ZMUNI3_PCT 4163.5514   
    QMUNI1 ZMUNI4_PCT 3050.4227   
    QMUNI1 ZMUNI5_PCT  -92.3157   
    QMUNI1 ZMUNI6_PCT 115.0131    
    QMUNI1 ZMUNI7_PCT 1615.5243   
    QMUNI1 ZMUNI8_PCT 1306.7245   
    QMUNI1 ZMUNI9_PCT 536.3464    
    QMUNI2 OBJROW 1.          
    QMUNI2 ZMUNI1_PCT 1133.1558   
    QMUNI2 ZMUNI2_PCT 34059.3338  
    QMUNI2 ZMUNI3_PCT 1945.6864   
    QMUNI2 ZMUNI4_PCT 2175.808    
    QMUNI2 ZMUNI5_PCT  -594.5206  
    QMUNI2 ZMUNI6_PCT  -539.7797  
    QMUNI2 ZMUNI7_PCT  -17.1661   
    QMUNI2 ZMUNI8_PCT 221.8246    
    QMUNI2 ZMUNI9_PCT  -26.1307   
    QMUNI3 OBJROW 1.          
    QMUNI3 ZMUNI1_PCT 3544.8075   
    QMUNI3 ZMUNI2_PCT 2013.9694   
    QMUNI3 ZMUNI3_PCT 29990.0055  
    QMUNI3 ZMUNI4_PCT 4546.6423   
    QMUNI3 ZMUNI5_PCT  -745.7733  
    QMUNI3 ZMUNI6_PCT  -610.1608  
    QMUNI3 ZMUNI7_PCT 464.6301    
    QMUNI3 ZMUNI8_PCT 382.6141    
    QMUNI3 ZMUNI9_PCT  -522.6136  
    QMUNI4 OBJROW 1.          
    QMUNI4 ZMUNI1_PCT 3040.5045   
    QMUNI4 ZMUNI2_PCT 2874.9466   
    QMUNI4 ZMUNI3_PCT 5243.8736   
    QMUNI4 ZMUNI4_PCT 107602.6917 
    QMUNI4 ZMUNI5_PCT  -199.6994  
    QMUNI4 ZMUNI6_PCT  -59.7      
    QMUNI4 ZMUNI7_PCT 1115.036    
    QMUNI4 ZMUNI8_PCT 1145.1721   
    QMUNI4 ZMUNI9_PCT 693.5119    
    QMUNI5 OBJROW 1.          
    QMUNI5 ZMUNI1_PCT  -75.1495   
    QMUNI5 ZMUNI2_PCT  -185.585   
    QMUNI5 ZMUNI3_PCT  -120.1629  
    QMUNI5 ZMUNI4_PCT  -119.8768  
    QMUNI5 ZMUNI5_PCT 35642.8147  
    QMUNI5 ZMUNI6_PCT 2518.4631   
    QMUNI5 ZMUNI7_PCT  -237.6556  
    QMUNI5 ZMUNI8_PCT  -376.7014  
    QMUNI5 ZMUNI9_PCT  -535.7743  
    QMUNI6 OBJROW 1.          
    QMUNI6 ZMUNI1_PCT  -188.446   
    QMUNI6 ZMUNI2_PCT  -335.3119  
    QMUNI6 ZMUNI3_PCT  -257.8735  
    QMUNI6 ZMUNI4_PCT  -247.5738  
    QMUNI6 ZMUNI5_PCT 2201.0803   
    QMUNI6 ZMUNI6_PCT 32367.5155  
    QMUNI6 ZMUNI7_PCT  -379.5624  
    QMUNI6 ZMUNI8_PCT  -607.4906  
    QMUNI6 ZMUNI9_PCT  -849.5331  
    QMUNI7 OBJROW 1.          
    QMUNI7 ZMUNI1_PCT 1155.4718   
    QMUNI7 ZMUNI2_PCT 540.5426    
    QMUNI7 ZMUNI3_PCT 972.9386    
    QMUNI7 ZMUNI4_PCT 726.986     
    QMUNI7 ZMUNI5_PCT  -100.708   
    QMUNI7 ZMUNI6_PCT 59.8907     
    QMUNI7 ZMUNI7_PCT 30685.8063  
    QMUNI7 ZMUNI8_PCT 1856.2317   
    QMUNI7 ZMUNI9_PCT 121.3073    
    QMUNI8 OBJROW 1.          
    QMUNI8 ZMUNI1_PCT 961.4945    
    QMUNI8 ZMUNI2_PCT 794.22      
    QMUNI8 ZMUNI3_PCT 981.9031    
    QMUNI8 ZMUNI4_PCT 770.092     
    QMUNI8 ZMUNI5_PCT  -37.384    
    QMUNI8 ZMUNI6_PCT 62.3703     
    QMUNI8 ZMUNI7_PCT 2149.5819   
    QMUNI8 ZMUNI8_PCT 28788.948   
    QMUNI8 ZMUNI9_PCT 858.3069    
    QMUNI9 OBJROW 1.          
    QMUNI9 ZMUNI1_PCT  -56.4575   
    QMUNI9 ZMUNI2_PCT 295.639     
    QMUNI9 ZMUNI3_PCT 59.8908     
    QMUNI9 ZMUNI4_PCT 76.1032     
    QMUNI9 ZMUNI5_PCT  -817.8711  
    QMUNI9 ZMUNI6_PCT  -778.1983  
    QMUNI9 ZMUNI7_PCT  -461.9598  
    QMUNI9 ZMUNI8_PCT 98.2284     
    QMUNI9 ZMUNI9_PCT 26604.6524  
RHS
    RHS ZMUNI1_PCT 0.0213328099
    RHS ZMUNI2_PCT 0.0253674891
    RHS ZMUNI3_PCT 0.0049323184
    RHS ZMUNI4_PCT -0.074459527
    RHS ZMUNI5_PCT 0.021732052 
    RHS ZMUNI6_PCT 0.0439973135
    RHS ZMUNI7_PCT -0.001614868
    RHS ZMUNI8_PCT 0.001706706 
    RHS ZMUNI9_PCT -0.015356383
BOUNDS
 LO BOUND QMUNI1 -0.000785072
 UP BOUND QMUNI1      1.1e+10
 LO BOUND QMUNI2 -0.000546107
 UP BOUND QMUNI2      1.1e+10
 LO BOUND QMUNI3 -0.000610973
 UP BOUND QMUNI3      1.1e+10
 LO BOUND QMUNI4 -0.000231909
 UP BOUND QMUNI4      1.1e+10
 LO BOUND QMUNI5 -0.000398418
 UP BOUND QMUNI5      1.1e+10
 LO BOUND QMUNI6 -0.000558161
 UP BOUND QMUNI6      1.1e+10
 LO BOUND QMUNI7 -0.000236734
 UP BOUND QMUNI7      1.1e+10
 LO BOUND QMUNI8 -0.000342244
 UP BOUND QMUNI8      1.1e+10
 LO BOUND QMUNI9 -0.000352769
 UP BOUND QMUNI9      1.1e+10
ENDATA
